142229
9,9,28,63,72,44,45,53,70,65,35,25,69,61,79,13,75,66,19,76,57,73,31,39,10,15,32,26,6,55,50,71,80,59,46,42,56,2,11,22,54,41,24,68,14,60,5,78,27,7,82,52,58,67,43,21,4,18,23,30,47,20,8,16,81,74,37,1,29,34,77,40,38,62,3,49,64,17,36,12,0,51,33,48
